100 154966
6 33 74 39 15 83 71 79 18 37 11 80 27 24 5 63 25 97 91 65 93 75 34 9 77 84 57 95 28 10 89 54 22 16 31 30 32 19 1 78 68 8 13 62 56 96 60 86 73 87 42 94 67 59 98 52 61 85 55 58 66 88 43 12 4 100 26 69 40 29 50 72 46 14 99 38 47 90 23 41 49 81 48 82 92 53 51 2 64 17 3 21 70 35 36 7 45 76 20 44 
